p cnf 36 105
1 2 3 0
4 5 6 0
7 8 9 0
10 11 12 0
13 14 15 0
16 17 18 0
19 20 21 0
22 23 24 0
25 26 27 0
28 29 30 0
31 32 33 0
34 35 36 0
-1 -2 0
-1 -3 0
-2 -3 0
-4 -5 0
-4 -6 0
-5 -6 0
-7 -8 0
-7 -9 0
-8 -9 0
-10 -11 0
-10 -12 0
-11 -12 0
-13 -14 0
-13 -15 0
-14 -15 0
-16 -17 0
-16 -18 0
-17 -18 0
-19 -20 0
-19 -21 0
-20 -21 0
-22 -23 0
-22 -24 0
-23 -24 0
-25 -26 0
-25 -27 0
-26 -27 0
-28 -29 0
-28 -30 0
-29 -30 0
-31 -32 0
-31 -33 0
-32 -33 0
-34 -35 0
-34 -36 0
-35 -36 0
-1 -7 0
-2 -8 0
-3 -9 0
-1 -16 0
-2 -17 0
-3 -18 0
-1 -28 0
-2 -29 0
-3 -30 0
-4 -16 0
-5 -17 0
-6 -18 0
-4 -31 0
-5 -32 0
-6 -33 0
-7 -13 0
-8 -14 0
-9 -15 0
-7 -25 0
-8 -26 0
-9 -27 0
-7 -28 0
-8 -29 0
-9 -30 0
-10 -19 0
-11 -20 0
-12 -21 0
-10 -31 0
-11 -32 0
-12 -33 0
-10 -34 0
-11 -35 0
-12 -36 0
-13 -19 0
-14 -20 0
-15 -21 0
-13 -25 0
-14 -26 0
-15 -27 0
-13 -28 0
-14 -29 0
-15 -30 0
-16 -22 0
-17 -23 0
-18 -24 0
-16 -34 0
-17 -35 0
-18 -36 0
-25 -31 0
-26 -32 0
-27 -33 0
-25 -34 0
-26 -35 0
-27 -36 0
-31 -34 0
-32 -35 0
-33 -36 0
